objective value:                                   -9
t_n_18                                              1 	(obj:-1)
t_n_410                                             1 	(obj:-1)
t_n_454                                             1 	(obj:-1)
t_n_558                                             1 	(obj:-1)
t_n_564                                             1 	(obj:-1)
t_n_766                                             1 	(obj:-1)
t_n_904                                             1 	(obj:-1)
t_n_910                                             1 	(obj:-1)
t_n_983                                             1 	(obj:-1)
